p cnf 13 20
13 -10 7 0
-13 10 -7 0
-13 -9 -8 0
-12 -8 -5 0
-12 3 -2 0
11 -10 -3 0
11 -5 2 0
11 3 -2 0
10 8 3 0
10 8 -1 0
-10 -7 -4 0
10 6 3 0
-10 -6 -2 0
-10 -5 2 0
-9 8 7 0
9 4 -2 0
8 -7 -4 0
8 -2 1 0
7 -6 -5 0
-5 3 2 0
